* #variable= 260 #constraint= 603 
-1 x21 +1 x1 >= 0 ;
-1 x21 +1 x11 >= 0 ;
+1 x21 -1 x1 -1 x11 >= -1 ;
+1 x21 +2 x31 +4 x41 +8 x51 +16 x61 +32 x71 +64 x81 +128 x91 +256 x101 +512 x111 +2 x22 +4 x32 +8 x42 +16 x52 +32 x62 +64 x72 +128 x82 +256 x92 +512 x102 +1024 x112 +4 x23 +8 x33 +16 x43 +32 x53 +64 x63 +128 x73 +256 x83 +512 x93 +1024 x103 +2048 x113 +8 x24 +16 x34 +32 x44 +64 x54 +128 x64 +256 x74 +512 x84 +1024 x94 +2048 x104 +4096 x114 +16 x25 +32 x35 +64 x45 +128 x55 +256 x65 +512 x75 +1024 x85 +2048 x95 +4096 x105 +8192 x115 +32 x26 +64 x36 +128 x46 +256 x56 +512 x66 +1024 x76 +2048 x86 +4096 x96 +8192 x106 +16384 x116 +64 x27 +128 x37 +256 x47 +512 x57 +1024 x67 +2048 x77 +4096 x87 +8192 x97 +16384 x107 +32768 x117 +128 x28 +256 x38 +512 x48 +1024 x58 +2048 x68 +4096 x78 +8192 x88 +16384 x98 +32768 x108 +65536 x118 +256 x29 +512 x39 +1024 x49 +2048 x59 +4096 x69 +8192 x79 +16384 x89 +32768 x99 +65536 x109 +131072 x119 +512 x30 +1024 x40 +2048 x50 +4096 x60 +8192 x70 +16384 x80 +32768 x90 +65536 x100 +131072 x110 +262144 x120 -1 x241 -2 x242 -4 x243 -8 x244 -16 x245 -32 x246 -64 x247 -128 x248 -256 x249 -512 x250 -1024 x251 -2048 x252 -4096 x253 -8192 x254 -16384 x255 -32768 x256 -65536 x257 -131072 x258 -262144 x259 -524288 x260 = 0; 
-1 x121 +1 x11 >= 0 ;
-1 x121 +1 x1 >= 0 ;
+1 x121 -1 x11 -1 x1 >= -1 ;
+1 x121 +2 x131 +4 x141 +8 x151 +16 x161 +32 x171 +64 x181 +128 x191 +256 x201 +512 x211 +2 x122 +4 x132 +8 x142 +16 x152 +32 x162 +64 x172 +128 x182 +256 x192 +512 x202 +1024 x212 +4 x123 +8 x133 +16 x143 +32 x153 +64 x163 +128 x173 +256 x183 +512 x193 +1024 x203 +2048 x213 +8 x124 +16 x134 +32 x144 +64 x154 +128 x164 +256 x174 +512 x184 +1024 x194 +2048 x204 +4096 x214 +16 x125 +32 x135 +64 x145 +128 x155 +256 x165 +512 x175 +1024 x185 +2048 x195 +4096 x205 +8192 x215 +32 x126 +64 x136 +128 x146 +256 x156 +512 x166 +1024 x176 +2048 x186 +4096 x196 +8192 x206 +16384 x216 +64 x127 +128 x137 +256 x147 +512 x157 +1024 x167 +2048 x177 +4096 x187 +8192 x197 +16384 x207 +32768 x217 +128 x128 +256 x138 +512 x148 +1024 x158 +2048 x168 +4096 x178 +8192 x188 +16384 x198 +32768 x208 +65536 x218 +256 x129 +512 x139 +1024 x149 +2048 x159 +4096 x169 +8192 x179 +16384 x189 +32768 x199 +65536 x209 +131072 x219 +512 x130 +1024 x140 +2048 x150 +4096 x160 +8192 x170 +16384 x180 +32768 x190 +65536 x200 +131072 x210 +262144 x220 -1 x221 -2 x222 -4 x223 -8 x224 -16 x225 -32 x226 -64 x227 -128 x228 -256 x229 -512 x230 -1024 x231 -2048 x232 -4096 x233 -8192 x234 -16384 x235 -32768 x236 -65536 x237 -131072 x238 -262144 x239 -524288 x240 = 0; 
-1 x241 +1 x221 -2 x242 +2 x222 -4 x243 +4 x223 -8 x244 +8 x224 -16 x245 +16 x225 -32 x246 +32 x226 -64 x247 +64 x227 -128 x248 +128 x228 -256 x249 +256 x229 -512 x250 +512 x230 -1024 x251 +1024 x231 -2048 x252 +2048 x232 -4096 x253 +4096 x233 -8192 x254 +8192 x234 -16384 x255 +16384 x235 -32768 x256 +32768 x236 -65536 x257 +65536 x237 -131072 x258 +131072 x238 -262144 x259 +262144 x239 -524288 x260 +524288 x240 >= 1 ;
-1 x31 +1 x2 >= 0 ;
-1 x31 +1 x11 >= 0 ;
+1 x31 -1 x2 -1 x11 >= -1 ;
-1 x22 +1 x1 >= 0 ;
-1 x22 +1 x12 >= 0 ;
+1 x22 -1 x1 -1 x12 >= -1 ;
-1 x131 +1 x12 >= 0 ;
-1 x131 +1 x1 >= 0 ;
+1 x131 -1 x12 -1 x1 >= -1 ;
-1 x122 +1 x11 >= 0 ;
-1 x122 +1 x2 >= 0 ;
+1 x122 -1 x11 -1 x2 >= -1 ;
-1 x41 +1 x3 >= 0 ;
-1 x41 +1 x11 >= 0 ;
+1 x41 -1 x3 -1 x11 >= -1 ;
-1 x32 +1 x2 >= 0 ;
-1 x32 +1 x12 >= 0 ;
+1 x32 -1 x2 -1 x12 >= -1 ;
-1 x23 +1 x1 >= 0 ;
-1 x23 +1 x13 >= 0 ;
+1 x23 -1 x1 -1 x13 >= -1 ;
-1 x141 +1 x13 >= 0 ;
-1 x141 +1 x1 >= 0 ;
+1 x141 -1 x13 -1 x1 >= -1 ;
-1 x132 +1 x12 >= 0 ;
-1 x132 +1 x2 >= 0 ;
+1 x132 -1 x12 -1 x2 >= -1 ;
-1 x123 +1 x11 >= 0 ;
-1 x123 +1 x3 >= 0 ;
+1 x123 -1 x11 -1 x3 >= -1 ;
-1 x51 +1 x4 >= 0 ;
-1 x51 +1 x11 >= 0 ;
+1 x51 -1 x4 -1 x11 >= -1 ;
-1 x42 +1 x3 >= 0 ;
-1 x42 +1 x12 >= 0 ;
+1 x42 -1 x3 -1 x12 >= -1 ;
-1 x33 +1 x2 >= 0 ;
-1 x33 +1 x13 >= 0 ;
+1 x33 -1 x2 -1 x13 >= -1 ;
-1 x24 +1 x1 >= 0 ;
-1 x24 +1 x14 >= 0 ;
+1 x24 -1 x1 -1 x14 >= -1 ;
-1 x151 +1 x14 >= 0 ;
-1 x151 +1 x1 >= 0 ;
+1 x151 -1 x14 -1 x1 >= -1 ;
-1 x142 +1 x13 >= 0 ;
-1 x142 +1 x2 >= 0 ;
+1 x142 -1 x13 -1 x2 >= -1 ;
-1 x133 +1 x12 >= 0 ;
-1 x133 +1 x3 >= 0 ;
+1 x133 -1 x12 -1 x3 >= -1 ;
-1 x124 +1 x11 >= 0 ;
-1 x124 +1 x4 >= 0 ;
+1 x124 -1 x11 -1 x4 >= -1 ;
-1 x61 +1 x5 >= 0 ;
-1 x61 +1 x11 >= 0 ;
+1 x61 -1 x5 -1 x11 >= -1 ;
-1 x52 +1 x4 >= 0 ;
-1 x52 +1 x12 >= 0 ;
+1 x52 -1 x4 -1 x12 >= -1 ;
-1 x43 +1 x3 >= 0 ;
-1 x43 +1 x13 >= 0 ;
+1 x43 -1 x3 -1 x13 >= -1 ;
-1 x34 +1 x2 >= 0 ;
-1 x34 +1 x14 >= 0 ;
+1 x34 -1 x2 -1 x14 >= -1 ;
-1 x25 +1 x1 >= 0 ;
-1 x25 +1 x15 >= 0 ;
+1 x25 -1 x1 -1 x15 >= -1 ;
-1 x161 +1 x15 >= 0 ;
-1 x161 +1 x1 >= 0 ;
+1 x161 -1 x15 -1 x1 >= -1 ;
-1 x152 +1 x14 >= 0 ;
-1 x152 +1 x2 >= 0 ;
+1 x152 -1 x14 -1 x2 >= -1 ;
-1 x143 +1 x13 >= 0 ;
-1 x143 +1 x3 >= 0 ;
+1 x143 -1 x13 -1 x3 >= -1 ;
-1 x134 +1 x12 >= 0 ;
-1 x134 +1 x4 >= 0 ;
+1 x134 -1 x12 -1 x4 >= -1 ;
-1 x125 +1 x11 >= 0 ;
-1 x125 +1 x5 >= 0 ;
+1 x125 -1 x11 -1 x5 >= -1 ;
-1 x71 +1 x6 >= 0 ;
-1 x71 +1 x11 >= 0 ;
+1 x71 -1 x6 -1 x11 >= -1 ;
-1 x62 +1 x5 >= 0 ;
-1 x62 +1 x12 >= 0 ;
+1 x62 -1 x5 -1 x12 >= -1 ;
-1 x53 +1 x4 >= 0 ;
-1 x53 +1 x13 >= 0 ;
+1 x53 -1 x4 -1 x13 >= -1 ;
-1 x44 +1 x3 >= 0 ;
-1 x44 +1 x14 >= 0 ;
+1 x44 -1 x3 -1 x14 >= -1 ;
-1 x35 +1 x2 >= 0 ;
-1 x35 +1 x15 >= 0 ;
+1 x35 -1 x2 -1 x15 >= -1 ;
-1 x26 +1 x1 >= 0 ;
-1 x26 +1 x16 >= 0 ;
+1 x26 -1 x1 -1 x16 >= -1 ;
-1 x171 +1 x16 >= 0 ;
-1 x171 +1 x1 >= 0 ;
+1 x171 -1 x16 -1 x1 >= -1 ;
-1 x162 +1 x15 >= 0 ;
-1 x162 +1 x2 >= 0 ;
+1 x162 -1 x15 -1 x2 >= -1 ;
-1 x153 +1 x14 >= 0 ;
-1 x153 +1 x3 >= 0 ;
+1 x153 -1 x14 -1 x3 >= -1 ;
-1 x144 +1 x13 >= 0 ;
-1 x144 +1 x4 >= 0 ;
+1 x144 -1 x13 -1 x4 >= -1 ;
-1 x135 +1 x12 >= 0 ;
-1 x135 +1 x5 >= 0 ;
+1 x135 -1 x12 -1 x5 >= -1 ;
-1 x126 +1 x11 >= 0 ;
-1 x126 +1 x6 >= 0 ;
+1 x126 -1 x11 -1 x6 >= -1 ;
-1 x81 +1 x7 >= 0 ;
-1 x81 +1 x11 >= 0 ;
+1 x81 -1 x7 -1 x11 >= -1 ;
-1 x72 +1 x6 >= 0 ;
-1 x72 +1 x12 >= 0 ;
+1 x72 -1 x6 -1 x12 >= -1 ;
-1 x63 +1 x5 >= 0 ;
-1 x63 +1 x13 >= 0 ;
+1 x63 -1 x5 -1 x13 >= -1 ;
-1 x54 +1 x4 >= 0 ;
-1 x54 +1 x14 >= 0 ;
+1 x54 -1 x4 -1 x14 >= -1 ;
-1 x45 +1 x3 >= 0 ;
-1 x45 +1 x15 >= 0 ;
+1 x45 -1 x3 -1 x15 >= -1 ;
-1 x36 +1 x2 >= 0 ;
-1 x36 +1 x16 >= 0 ;
+1 x36 -1 x2 -1 x16 >= -1 ;
-1 x27 +1 x1 >= 0 ;
-1 x27 +1 x17 >= 0 ;
+1 x27 -1 x1 -1 x17 >= -1 ;
-1 x181 +1 x17 >= 0 ;
-1 x181 +1 x1 >= 0 ;
+1 x181 -1 x17 -1 x1 >= -1 ;
-1 x172 +1 x16 >= 0 ;
-1 x172 +1 x2 >= 0 ;
+1 x172 -1 x16 -1 x2 >= -1 ;
-1 x163 +1 x15 >= 0 ;
-1 x163 +1 x3 >= 0 ;
+1 x163 -1 x15 -1 x3 >= -1 ;
-1 x154 +1 x14 >= 0 ;
-1 x154 +1 x4 >= 0 ;
+1 x154 -1 x14 -1 x4 >= -1 ;
-1 x145 +1 x13 >= 0 ;
-1 x145 +1 x5 >= 0 ;
+1 x145 -1 x13 -1 x5 >= -1 ;
-1 x136 +1 x12 >= 0 ;
-1 x136 +1 x6 >= 0 ;
+1 x136 -1 x12 -1 x6 >= -1 ;
-1 x127 +1 x11 >= 0 ;
-1 x127 +1 x7 >= 0 ;
+1 x127 -1 x11 -1 x7 >= -1 ;
-1 x91 +1 x8 >= 0 ;
-1 x91 +1 x11 >= 0 ;
+1 x91 -1 x8 -1 x11 >= -1 ;
-1 x82 +1 x7 >= 0 ;
-1 x82 +1 x12 >= 0 ;
+1 x82 -1 x7 -1 x12 >= -1 ;
-1 x73 +1 x6 >= 0 ;
-1 x73 +1 x13 >= 0 ;
+1 x73 -1 x6 -1 x13 >= -1 ;
-1 x64 +1 x5 >= 0 ;
-1 x64 +1 x14 >= 0 ;
+1 x64 -1 x5 -1 x14 >= -1 ;
-1 x55 +1 x4 >= 0 ;
-1 x55 +1 x15 >= 0 ;
+1 x55 -1 x4 -1 x15 >= -1 ;
-1 x46 +1 x3 >= 0 ;
-1 x46 +1 x16 >= 0 ;
+1 x46 -1 x3 -1 x16 >= -1 ;
-1 x37 +1 x2 >= 0 ;
-1 x37 +1 x17 >= 0 ;
+1 x37 -1 x2 -1 x17 >= -1 ;
-1 x28 +1 x1 >= 0 ;
-1 x28 +1 x18 >= 0 ;
+1 x28 -1 x1 -1 x18 >= -1 ;
-1 x191 +1 x18 >= 0 ;
-1 x191 +1 x1 >= 0 ;
+1 x191 -1 x18 -1 x1 >= -1 ;
-1 x182 +1 x17 >= 0 ;
-1 x182 +1 x2 >= 0 ;
+1 x182 -1 x17 -1 x2 >= -1 ;
-1 x173 +1 x16 >= 0 ;
-1 x173 +1 x3 >= 0 ;
+1 x173 -1 x16 -1 x3 >= -1 ;
-1 x164 +1 x15 >= 0 ;
-1 x164 +1 x4 >= 0 ;
+1 x164 -1 x15 -1 x4 >= -1 ;
-1 x155 +1 x14 >= 0 ;
-1 x155 +1 x5 >= 0 ;
+1 x155 -1 x14 -1 x5 >= -1 ;
-1 x146 +1 x13 >= 0 ;
-1 x146 +1 x6 >= 0 ;
+1 x146 -1 x13 -1 x6 >= -1 ;
-1 x137 +1 x12 >= 0 ;
-1 x137 +1 x7 >= 0 ;
+1 x137 -1 x12 -1 x7 >= -1 ;
-1 x128 +1 x11 >= 0 ;
-1 x128 +1 x8 >= 0 ;
+1 x128 -1 x11 -1 x8 >= -1 ;
-1 x101 +1 x9 >= 0 ;
-1 x101 +1 x11 >= 0 ;
+1 x101 -1 x9 -1 x11 >= -1 ;
-1 x92 +1 x8 >= 0 ;
-1 x92 +1 x12 >= 0 ;
+1 x92 -1 x8 -1 x12 >= -1 ;
-1 x83 +1 x7 >= 0 ;
-1 x83 +1 x13 >= 0 ;
+1 x83 -1 x7 -1 x13 >= -1 ;
-1 x74 +1 x6 >= 0 ;
-1 x74 +1 x14 >= 0 ;
+1 x74 -1 x6 -1 x14 >= -1 ;
-1 x65 +1 x5 >= 0 ;
-1 x65 +1 x15 >= 0 ;
+1 x65 -1 x5 -1 x15 >= -1 ;
-1 x56 +1 x4 >= 0 ;
-1 x56 +1 x16 >= 0 ;
+1 x56 -1 x4 -1 x16 >= -1 ;
-1 x47 +1 x3 >= 0 ;
-1 x47 +1 x17 >= 0 ;
+1 x47 -1 x3 -1 x17 >= -1 ;
-1 x38 +1 x2 >= 0 ;
-1 x38 +1 x18 >= 0 ;
+1 x38 -1 x2 -1 x18 >= -1 ;
-1 x29 +1 x1 >= 0 ;
-1 x29 +1 x19 >= 0 ;
+1 x29 -1 x1 -1 x19 >= -1 ;
-1 x201 +1 x19 >= 0 ;
-1 x201 +1 x1 >= 0 ;
+1 x201 -1 x19 -1 x1 >= -1 ;
-1 x192 +1 x18 >= 0 ;
-1 x192 +1 x2 >= 0 ;
+1 x192 -1 x18 -1 x2 >= -1 ;
-1 x183 +1 x17 >= 0 ;
-1 x183 +1 x3 >= 0 ;
+1 x183 -1 x17 -1 x3 >= -1 ;
-1 x174 +1 x16 >= 0 ;
-1 x174 +1 x4 >= 0 ;
+1 x174 -1 x16 -1 x4 >= -1 ;
-1 x165 +1 x15 >= 0 ;
-1 x165 +1 x5 >= 0 ;
+1 x165 -1 x15 -1 x5 >= -1 ;
-1 x156 +1 x14 >= 0 ;
-1 x156 +1 x6 >= 0 ;
+1 x156 -1 x14 -1 x6 >= -1 ;
-1 x147 +1 x13 >= 0 ;
-1 x147 +1 x7 >= 0 ;
+1 x147 -1 x13 -1 x7 >= -1 ;
-1 x138 +1 x12 >= 0 ;
-1 x138 +1 x8 >= 0 ;
+1 x138 -1 x12 -1 x8 >= -1 ;
-1 x129 +1 x11 >= 0 ;
-1 x129 +1 x9 >= 0 ;
+1 x129 -1 x11 -1 x9 >= -1 ;
-1 x111 +1 x10 >= 0 ;
-1 x111 +1 x11 >= 0 ;
+1 x111 -1 x10 -1 x11 >= -1 ;
-1 x102 +1 x9 >= 0 ;
-1 x102 +1 x12 >= 0 ;
+1 x102 -1 x9 -1 x12 >= -1 ;
-1 x93 +1 x8 >= 0 ;
-1 x93 +1 x13 >= 0 ;
+1 x93 -1 x8 -1 x13 >= -1 ;
-1 x84 +1 x7 >= 0 ;
-1 x84 +1 x14 >= 0 ;
+1 x84 -1 x7 -1 x14 >= -1 ;
-1 x75 +1 x6 >= 0 ;
-1 x75 +1 x15 >= 0 ;
+1 x75 -1 x6 -1 x15 >= -1 ;
-1 x66 +1 x5 >= 0 ;
-1 x66 +1 x16 >= 0 ;
+1 x66 -1 x5 -1 x16 >= -1 ;
-1 x57 +1 x4 >= 0 ;
-1 x57 +1 x17 >= 0 ;
+1 x57 -1 x4 -1 x17 >= -1 ;
-1 x48 +1 x3 >= 0 ;
-1 x48 +1 x18 >= 0 ;
+1 x48 -1 x3 -1 x18 >= -1 ;
-1 x39 +1 x2 >= 0 ;
-1 x39 +1 x19 >= 0 ;
+1 x39 -1 x2 -1 x19 >= -1 ;
-1 x30 +1 x1 >= 0 ;
-1 x30 +1 x20 >= 0 ;
+1 x30 -1 x1 -1 x20 >= -1 ;
-1 x211 +1 x20 >= 0 ;
-1 x211 +1 x1 >= 0 ;
+1 x211 -1 x20 -1 x1 >= -1 ;
-1 x202 +1 x19 >= 0 ;
-1 x202 +1 x2 >= 0 ;
+1 x202 -1 x19 -1 x2 >= -1 ;
-1 x193 +1 x18 >= 0 ;
-1 x193 +1 x3 >= 0 ;
+1 x193 -1 x18 -1 x3 >= -1 ;
-1 x184 +1 x17 >= 0 ;
-1 x184 +1 x4 >= 0 ;
+1 x184 -1 x17 -1 x4 >= -1 ;
-1 x175 +1 x16 >= 0 ;
-1 x175 +1 x5 >= 0 ;
+1 x175 -1 x16 -1 x5 >= -1 ;
-1 x166 +1 x15 >= 0 ;
-1 x166 +1 x6 >= 0 ;
+1 x166 -1 x15 -1 x6 >= -1 ;
-1 x157 +1 x14 >= 0 ;
-1 x157 +1 x7 >= 0 ;
+1 x157 -1 x14 -1 x7 >= -1 ;
-1 x148 +1 x13 >= 0 ;
-1 x148 +1 x8 >= 0 ;
+1 x148 -1 x13 -1 x8 >= -1 ;
-1 x139 +1 x12 >= 0 ;
-1 x139 +1 x9 >= 0 ;
+1 x139 -1 x12 -1 x9 >= -1 ;
-1 x130 +1 x11 >= 0 ;
-1 x130 +1 x10 >= 0 ;
+1 x130 -1 x11 -1 x10 >= -1 ;
-1 x112 +1 x10 >= 0 ;
-1 x112 +1 x12 >= 0 ;
+1 x112 -1 x10 -1 x12 >= -1 ;
-1 x103 +1 x9 >= 0 ;
-1 x103 +1 x13 >= 0 ;
+1 x103 -1 x9 -1 x13 >= -1 ;
-1 x94 +1 x8 >= 0 ;
-1 x94 +1 x14 >= 0 ;
+1 x94 -1 x8 -1 x14 >= -1 ;
-1 x85 +1 x7 >= 0 ;
-1 x85 +1 x15 >= 0 ;
+1 x85 -1 x7 -1 x15 >= -1 ;
-1 x76 +1 x6 >= 0 ;
-1 x76 +1 x16 >= 0 ;
+1 x76 -1 x6 -1 x16 >= -1 ;
-1 x67 +1 x5 >= 0 ;
-1 x67 +1 x17 >= 0 ;
+1 x67 -1 x5 -1 x17 >= -1 ;
-1 x58 +1 x4 >= 0 ;
-1 x58 +1 x18 >= 0 ;
+1 x58 -1 x4 -1 x18 >= -1 ;
-1 x49 +1 x3 >= 0 ;
-1 x49 +1 x19 >= 0 ;
+1 x49 -1 x3 -1 x19 >= -1 ;
-1 x40 +1 x2 >= 0 ;
-1 x40 +1 x20 >= 0 ;
+1 x40 -1 x2 -1 x20 >= -1 ;
-1 x212 +1 x20 >= 0 ;
-1 x212 +1 x2 >= 0 ;
+1 x212 -1 x20 -1 x2 >= -1 ;
-1 x203 +1 x19 >= 0 ;
-1 x203 +1 x3 >= 0 ;
+1 x203 -1 x19 -1 x3 >= -1 ;
-1 x194 +1 x18 >= 0 ;
-1 x194 +1 x4 >= 0 ;
+1 x194 -1 x18 -1 x4 >= -1 ;
-1 x185 +1 x17 >= 0 ;
-1 x185 +1 x5 >= 0 ;
+1 x185 -1 x17 -1 x5 >= -1 ;
-1 x176 +1 x16 >= 0 ;
-1 x176 +1 x6 >= 0 ;
+1 x176 -1 x16 -1 x6 >= -1 ;
-1 x167 +1 x15 >= 0 ;
-1 x167 +1 x7 >= 0 ;
+1 x167 -1 x15 -1 x7 >= -1 ;
-1 x158 +1 x14 >= 0 ;
-1 x158 +1 x8 >= 0 ;
+1 x158 -1 x14 -1 x8 >= -1 ;
-1 x149 +1 x13 >= 0 ;
-1 x149 +1 x9 >= 0 ;
+1 x149 -1 x13 -1 x9 >= -1 ;
-1 x140 +1 x12 >= 0 ;
-1 x140 +1 x10 >= 0 ;
+1 x140 -1 x12 -1 x10 >= -1 ;
-1 x113 +1 x10 >= 0 ;
-1 x113 +1 x13 >= 0 ;
+1 x113 -1 x10 -1 x13 >= -1 ;
-1 x104 +1 x9 >= 0 ;
-1 x104 +1 x14 >= 0 ;
+1 x104 -1 x9 -1 x14 >= -1 ;
-1 x95 +1 x8 >= 0 ;
-1 x95 +1 x15 >= 0 ;
+1 x95 -1 x8 -1 x15 >= -1 ;
-1 x86 +1 x7 >= 0 ;
-1 x86 +1 x16 >= 0 ;
+1 x86 -1 x7 -1 x16 >= -1 ;
-1 x77 +1 x6 >= 0 ;
-1 x77 +1 x17 >= 0 ;
+1 x77 -1 x6 -1 x17 >= -1 ;
-1 x68 +1 x5 >= 0 ;
-1 x68 +1 x18 >= 0 ;
+1 x68 -1 x5 -1 x18 >= -1 ;
-1 x59 +1 x4 >= 0 ;
-1 x59 +1 x19 >= 0 ;
+1 x59 -1 x4 -1 x19 >= -1 ;
-1 x50 +1 x3 >= 0 ;
-1 x50 +1 x20 >= 0 ;
+1 x50 -1 x3 -1 x20 >= -1 ;
-1 x213 +1 x20 >= 0 ;
-1 x213 +1 x3 >= 0 ;
+1 x213 -1 x20 -1 x3 >= -1 ;
-1 x204 +1 x19 >= 0 ;
-1 x204 +1 x4 >= 0 ;
+1 x204 -1 x19 -1 x4 >= -1 ;
-1 x195 +1 x18 >= 0 ;
-1 x195 +1 x5 >= 0 ;
+1 x195 -1 x18 -1 x5 >= -1 ;
-1 x186 +1 x17 >= 0 ;
-1 x186 +1 x6 >= 0 ;
+1 x186 -1 x17 -1 x6 >= -1 ;
-1 x177 +1 x16 >= 0 ;
-1 x177 +1 x7 >= 0 ;
+1 x177 -1 x16 -1 x7 >= -1 ;
-1 x168 +1 x15 >= 0 ;
-1 x168 +1 x8 >= 0 ;
+1 x168 -1 x15 -1 x8 >= -1 ;
-1 x159 +1 x14 >= 0 ;
-1 x159 +1 x9 >= 0 ;
+1 x159 -1 x14 -1 x9 >= -1 ;
-1 x150 +1 x13 >= 0 ;
-1 x150 +1 x10 >= 0 ;
+1 x150 -1 x13 -1 x10 >= -1 ;
-1 x114 +1 x10 >= 0 ;
-1 x114 +1 x14 >= 0 ;
+1 x114 -1 x10 -1 x14 >= -1 ;
-1 x105 +1 x9 >= 0 ;
-1 x105 +1 x15 >= 0 ;
+1 x105 -1 x9 -1 x15 >= -1 ;
-1 x96 +1 x8 >= 0 ;
-1 x96 +1 x16 >= 0 ;
+1 x96 -1 x8 -1 x16 >= -1 ;
-1 x87 +1 x7 >= 0 ;
-1 x87 +1 x17 >= 0 ;
+1 x87 -1 x7 -1 x17 >= -1 ;
-1 x78 +1 x6 >= 0 ;
-1 x78 +1 x18 >= 0 ;
+1 x78 -1 x6 -1 x18 >= -1 ;
-1 x69 +1 x5 >= 0 ;
-1 x69 +1 x19 >= 0 ;
+1 x69 -1 x5 -1 x19 >= -1 ;
-1 x60 +1 x4 >= 0 ;
-1 x60 +1 x20 >= 0 ;
+1 x60 -1 x4 -1 x20 >= -1 ;
-1 x214 +1 x20 >= 0 ;
-1 x214 +1 x4 >= 0 ;
+1 x214 -1 x20 -1 x4 >= -1 ;
-1 x205 +1 x19 >= 0 ;
-1 x205 +1 x5 >= 0 ;
+1 x205 -1 x19 -1 x5 >= -1 ;
-1 x196 +1 x18 >= 0 ;
-1 x196 +1 x6 >= 0 ;
+1 x196 -1 x18 -1 x6 >= -1 ;
-1 x187 +1 x17 >= 0 ;
-1 x187 +1 x7 >= 0 ;
+1 x187 -1 x17 -1 x7 >= -1 ;
-1 x178 +1 x16 >= 0 ;
-1 x178 +1 x8 >= 0 ;
+1 x178 -1 x16 -1 x8 >= -1 ;
-1 x169 +1 x15 >= 0 ;
-1 x169 +1 x9 >= 0 ;
+1 x169 -1 x15 -1 x9 >= -1 ;
-1 x160 +1 x14 >= 0 ;
-1 x160 +1 x10 >= 0 ;
+1 x160 -1 x14 -1 x10 >= -1 ;
-1 x115 +1 x10 >= 0 ;
-1 x115 +1 x15 >= 0 ;
+1 x115 -1 x10 -1 x15 >= -1 ;
-1 x106 +1 x9 >= 0 ;
-1 x106 +1 x16 >= 0 ;
+1 x106 -1 x9 -1 x16 >= -1 ;
-1 x97 +1 x8 >= 0 ;
-1 x97 +1 x17 >= 0 ;
+1 x97 -1 x8 -1 x17 >= -1 ;
-1 x88 +1 x7 >= 0 ;
-1 x88 +1 x18 >= 0 ;
+1 x88 -1 x7 -1 x18 >= -1 ;
-1 x79 +1 x6 >= 0 ;
-1 x79 +1 x19 >= 0 ;
+1 x79 -1 x6 -1 x19 >= -1 ;
-1 x70 +1 x5 >= 0 ;
-1 x70 +1 x20 >= 0 ;
+1 x70 -1 x5 -1 x20 >= -1 ;
-1 x215 +1 x20 >= 0 ;
-1 x215 +1 x5 >= 0 ;
+1 x215 -1 x20 -1 x5 >= -1 ;
-1 x206 +1 x19 >= 0 ;
-1 x206 +1 x6 >= 0 ;
+1 x206 -1 x19 -1 x6 >= -1 ;
-1 x197 +1 x18 >= 0 ;
-1 x197 +1 x7 >= 0 ;
+1 x197 -1 x18 -1 x7 >= -1 ;
-1 x188 +1 x17 >= 0 ;
-1 x188 +1 x8 >= 0 ;
+1 x188 -1 x17 -1 x8 >= -1 ;
-1 x179 +1 x16 >= 0 ;
-1 x179 +1 x9 >= 0 ;
+1 x179 -1 x16 -1 x9 >= -1 ;
-1 x170 +1 x15 >= 0 ;
-1 x170 +1 x10 >= 0 ;
+1 x170 -1 x15 -1 x10 >= -1 ;
-1 x116 +1 x10 >= 0 ;
-1 x116 +1 x16 >= 0 ;
+1 x116 -1 x10 -1 x16 >= -1 ;
-1 x107 +1 x9 >= 0 ;
-1 x107 +1 x17 >= 0 ;
+1 x107 -1 x9 -1 x17 >= -1 ;
-1 x98 +1 x8 >= 0 ;
-1 x98 +1 x18 >= 0 ;
+1 x98 -1 x8 -1 x18 >= -1 ;
-1 x89 +1 x7 >= 0 ;
-1 x89 +1 x19 >= 0 ;
+1 x89 -1 x7 -1 x19 >= -1 ;
-1 x80 +1 x6 >= 0 ;
-1 x80 +1 x20 >= 0 ;
+1 x80 -1 x6 -1 x20 >= -1 ;
-1 x216 +1 x20 >= 0 ;
-1 x216 +1 x6 >= 0 ;
+1 x216 -1 x20 -1 x6 >= -1 ;
-1 x207 +1 x19 >= 0 ;
-1 x207 +1 x7 >= 0 ;
+1 x207 -1 x19 -1 x7 >= -1 ;
-1 x198 +1 x18 >= 0 ;
-1 x198 +1 x8 >= 0 ;
+1 x198 -1 x18 -1 x8 >= -1 ;
-1 x189 +1 x17 >= 0 ;
-1 x189 +1 x9 >= 0 ;
+1 x189 -1 x17 -1 x9 >= -1 ;
-1 x180 +1 x16 >= 0 ;
-1 x180 +1 x10 >= 0 ;
+1 x180 -1 x16 -1 x10 >= -1 ;
-1 x117 +1 x10 >= 0 ;
-1 x117 +1 x17 >= 0 ;
+1 x117 -1 x10 -1 x17 >= -1 ;
-1 x108 +1 x9 >= 0 ;
-1 x108 +1 x18 >= 0 ;
+1 x108 -1 x9 -1 x18 >= -1 ;
-1 x99 +1 x8 >= 0 ;
-1 x99 +1 x19 >= 0 ;
+1 x99 -1 x8 -1 x19 >= -1 ;
-1 x90 +1 x7 >= 0 ;
-1 x90 +1 x20 >= 0 ;
+1 x90 -1 x7 -1 x20 >= -1 ;
-1 x217 +1 x20 >= 0 ;
-1 x217 +1 x7 >= 0 ;
+1 x217 -1 x20 -1 x7 >= -1 ;
-1 x208 +1 x19 >= 0 ;
-1 x208 +1 x8 >= 0 ;
+1 x208 -1 x19 -1 x8 >= -1 ;
-1 x199 +1 x18 >= 0 ;
-1 x199 +1 x9 >= 0 ;
+1 x199 -1 x18 -1 x9 >= -1 ;
-1 x190 +1 x17 >= 0 ;
-1 x190 +1 x10 >= 0 ;
+1 x190 -1 x17 -1 x10 >= -1 ;
-1 x118 +1 x10 >= 0 ;
-1 x118 +1 x18 >= 0 ;
+1 x118 -1 x10 -1 x18 >= -1 ;
-1 x109 +1 x9 >= 0 ;
-1 x109 +1 x19 >= 0 ;
+1 x109 -1 x9 -1 x19 >= -1 ;
-1 x100 +1 x8 >= 0 ;
-1 x100 +1 x20 >= 0 ;
+1 x100 -1 x8 -1 x20 >= -1 ;
-1 x218 +1 x20 >= 0 ;
-1 x218 +1 x8 >= 0 ;
+1 x218 -1 x20 -1 x8 >= -1 ;
-1 x209 +1 x19 >= 0 ;
-1 x209 +1 x9 >= 0 ;
+1 x209 -1 x19 -1 x9 >= -1 ;
-1 x200 +1 x18 >= 0 ;
-1 x200 +1 x10 >= 0 ;
+1 x200 -1 x18 -1 x10 >= -1 ;
-1 x119 +1 x10 >= 0 ;
-1 x119 +1 x19 >= 0 ;
+1 x119 -1 x10 -1 x19 >= -1 ;
-1 x110 +1 x9 >= 0 ;
-1 x110 +1 x20 >= 0 ;
+1 x110 -1 x9 -1 x20 >= -1 ;
-1 x219 +1 x20 >= 0 ;
-1 x219 +1 x9 >= 0 ;
+1 x219 -1 x20 -1 x9 >= -1 ;
-1 x210 +1 x19 >= 0 ;
-1 x210 +1 x10 >= 0 ;
+1 x210 -1 x19 -1 x10 >= -1 ;
-1 x120 +1 x10 >= 0 ;
-1 x120 +1 x20 >= 0 ;
+1 x120 -1 x10 -1 x20 >= -1 ;
-1 x220 +1 x20 >= 0 ;
-1 x220 +1 x10 >= 0 ;
+1 x220 -1 x20 -1 x10 >= -1 ;
